p cnf 125 625
1 -125 -101 0
1 -125 -76 0
1 -125 -63 0
1 -125 9 0
1 -125 72 0
1 -124 -111 0
1 -124 -52 0
1 -124 10 0
1 -124 38 0
1 -124 107 0
1 -123 -121 0
1 -123 -97 0
1 -123 58 0
1 -123 67 0
1 -123 89 0
1 -122 -92 0
1 -122 -61 0
1 -122 8 0
1 -122 26 0
1 -122 43 0
1 -121 -15 0
1 -121 21 0
1 -121 102 0
1 -121 112 0
1 -120 -2 0
1 -120 46 0
1 -120 86 0
1 -120 90 0
1 -120 93 0
1 -119 -118 0
1 -119 -114 0
1 -119 -32 0
1 -119 -29 0
1 -119 71 0
1 -118 -112 0
1 -118 -61 0
1 -118 -9 0
1 -118 115 0
1 -117 -102 0
1 -117 -21 0
1 -117 39 0
1 -117 73 0
1 -117 95 0
1 -116 -75 0
1 -116 -18 0
1 -116 7 0
1 -116 43 0
1 -116 68 0
1 -115 -15 0
1 -115 -7 0
1 -115 51 0
1 -115 63 0
1 -115 118 0
1 -114 -111 0
1 -114 84 0
1 -114 102 0
1 -114 125 0
1 -113 -51 0
1 -113 45 0
1 -113 57 0
1 -113 97 0
1 -113 124 0
1 -112 -76 0
1 -112 -52 0
1 -112 8 0
1 -112 121 0
1 -111 -102 0
1 -111 -2 0
1 -111 54 0
1 -110 -82 0
1 -110 -81 0
1 -110 14 0
1 -110 61 0
1 -110 125 0
1 -109 -65 0
1 -109 -39 0
1 -109 48 0
1 -109 66 0
1 -109 120 0
1 -108 -56 0
1 -108 -54 0
1 -108 95 0
1 -108 96 0
1 -108 100 0
1 -107 -97 0
1 -107 -68 0
1 -107 -38 0
1 -107 8 0
1 -107 58 0
1 -106 -81 0
1 -106 -39 0
1 -106 13 0
1 -106 44 0
1 -106 114 0
1 -105 -14 0
1 -105 -5 0
1 -105 32 0
1 -105 76 0
1 -105 123 0
1 -104 -98 0
1 -104 -36 0
1 -104 -33 0
1 -104 -25 0
1 -104 75 0
1 -103 -84 0
1 -103 -82 0
1 -103 -42 0
1 -103 7 0
1 -103 124 0
1 -102 -45 0
1 -102 -13 0
1 -102 1 0
1 -101 -78 0
1 -101 -61 0
1 -101 24 0
1 -101 93 0
1 -100 -27 0
1 -100 2 0
1 -100 46 0
1 -100 47 0
1 -100 85 0
1 -99 -45 0
1 -99 -4 0
1 -99 19 0
1 -99 68 0
1 -99 90 0
1 -98 -80 0
1 -98 56 0
1 -98 104 0
1 -98 108 0
1 -97 -9 0
1 -97 69 0
1 -97 98 0
1 -96 -76 0
1 -96 -74 0
1 -96 6 0
1 -96 40 0
1 -96 84 0
1 -95 -69 0
1 -95 -29 0
1 -95 101 0
1 -95 102 0
1 -95 108 0
1 -94 -87 0
1 -94 -49 0
1 -94 -16 0
1 -94 -10 0
1 -94 71 0
1 -93 -33 0
1 -93 -31 0
1 -93 -6 0
1 -93 11 0
1 -93 23 0
1 -92 -74 0
1 -92 -71 0
1 -92 -7 0
1 -92 68 0
1 -91 -27 0
1 -91 -26 0
1 -91 -10 0
1 -91 26 0
1 -91 88 0
1 -90 -89 0
1 -90 -59 0
1 -90 -49 0
1 -90 -24 0
1 -90 26 0
1 -89 -81 0
1 -89 -30 0
1 -89 -7 0
1 -89 29 0
1 -88 -86 0
1 -88 -53 0
1 -88 -40 0
1 -88 -16 0
1 -88 53 0
1 -87 -34 0
1 -87 -23 0
1 -87 20 0
1 -87 52 0
1 -86 -1 0
1 -86 8 0
1 -86 11 0
1 -86 96 0
1 -85 -50 0
1 -85 -12 0
1 -85 33 0
1 -85 66 0
1 -85 72 0
1 -84 -55 0
1 -84 64 0
1 -84 69 0
1 -84 120 0
1 -83 -45 0
1 -83 17 0
1 -83 36 0
1 -83 122 0
1 -83 123 0
1 -82 -36 0
1 -82 33 0
1 -82 94 0
1 -81 -43 0
1 -81 34 0
1 -80 -60 0
1 -80 15 0
1 -80 99 0
1 -80 105 0
1 -79 -58 0
1 -79 -48 0
1 -79 -19 0
1 -79 -8 0
1 -79 -5 0
1 -78 -22 0
1 -78 49 0
1 -78 57 0
1 -78 83 0
1 -77 -63 0
1 -77 -58 0
1 -77 -5 0
1 -77 5 0
1 -77 112 0
1 -76 -60 0
1 -76 -59 0
1 -75 -19 0
1 -75 13 0
1 -75 111 0
1 -75 114 0
1 -74 4 0
1 -74 37 0
1 -74 53 0
1 -73 -62 0
1 -73 15 0
1 -73 31 0
1 -73 53 0
1 -73 80 0
1 -72 38 0
1 -72 58 0
1 -72 82 0
1 -72 91 0
1 -72 97 0
1 -71 40 0
1 -71 94 0
1 -71 109 0
1 -71 125 0
1 -70 -24 0
1 -70 -22 0
1 -70 9 0
1 -70 111 0
1 -70 119 0
1 -69 17 0
1 -69 79 0
1 -69 102 0
1 -69 116 0
1 -68 -18 0
1 -68 -15 0
1 -68 56 0
1 -68 87 0
1 -67 -38 0
1 -67 -15 0
1 -67 15 0
1 -67 80 0
1 -67 97 0
1 -66 -55 0
1 -66 75 0
1 -66 78 0
1 -66 87 0
1 -66 94 0
1 -65 4 0
1 -65 61 0
1 -65 113 0
1 -65 117 0
1 -64 -38 0
1 -64 -21 0
1 -64 9 0
1 -64 15 0
1 -64 36 0
1 -63 -47 0
1 -63 -35 0
1 -63 -4 0
1 -62 -6 0
1 -62 5 0
1 -62 51 0
1 -62 76 0
1 -61 22 0
1 -61 44 0
1 -60 -23 0
1 -60 71 0
1 -60 116 0
1 -59 -35 0
1 -59 1 0
1 -59 105 0
1 -58 -50 0
1 -58 -35 0
1 -58 93 0
1 -57 -3 0
1 -57 61 0
1 -57 65 0
1 -57 83 0
1 -57 109 0
1 -56 25 0
1 -56 64 0
1 -56 81 0
1 -56 104 0
1 -55 28 0
1 -55 45 0
1 -55 110 0
1 -54 -52 0
1 -54 22 0
1 -54 86 0
1 -54 108 0
1 -53 -33 0
1 -53 -21 0
1 -53 38 0
1 -53 91 0
1 -52 12 0
1 -52 34 0
1 -51 16 0
1 -51 29 0
1 -51 113 0
1 -51 115 0
1 -50 28 0
1 -50 39 0
1 -50 70 0
1 -49 -34 0
1 -49 75 0
1 -49 114 0
1 -48 -11 0
1 -48 14 0
1 -48 32 0
1 -48 59 0
1 -47 -19 0
1 -47 31 0
1 -47 73 0
1 -47 115 0
1 -46 -3 0
1 -46 45 0
1 -46 78 0
1 -46 110 0
1 -46 122 0
1 -45 -11 0
1 -45 5 0
1 -44 -22 0
1 -44 6 0
1 -44 18 0
1 -44 33 0
1 -44 70 0
1 -43 -20 0
1 -43 6 0
1 -43 50 0
1 -43 103 0
1 -42 -23 0
1 -42 29 0
1 -42 93 0
1 -42 125 0
1 -41 -16 0
1 -41 33 0
1 -41 35 0
1 -41 47 0
1 -41 82 0
1 -40 -24 0
1 -40 -4 0
1 -40 64 0
1 -40 89 0
1 -39 -34 0
1 -39 4 0
1 -39 125 0
1 -38 27 0
1 -38 28 0
1 -37 -32 0
1 -37 -13 0
1 -37 -2 0
1 -37 110 0
1 -37 117 0
1 -36 -5 0
1 -36 19 0
1 -36 76 0
1 -35 42 0
1 -35 104 0
1 -34 -31 0
1 -34 37 0
1 -33 3 0
1 -33 37 0
1 -32 8 0
1 -32 31 0
1 -32 50 0
1 -31 -18 0
1 -31 24 0
1 -31 35 0
1 -30 10 0
1 -30 62 0
1 -30 114 0
1 -30 121 0
1 -29 119 0
1 -29 120 0
1 -29 122 0
1 -28 -18 0
1 -28 -3 0
1 -28 11 0
1 -28 57 0
1 -28 64 0
1 -27 -4 0
1 -27 18 0
1 -27 88 0
1 -26 -25 0
1 -26 -1 0
1 -26 52 0
1 -26 78 0
1 -25 -20 0
1 -25 75 0
1 -25 85 0
1 -24 2 0
1 -24 106 0
1 -23 -1 0
1 -23 103 0
1 -22 48 0
1 -22 105 0
1 -21 -10 0
1 -21 124 0
1 -20 18 0
1 -20 44 0
1 -20 55 0
1 -19 42 0
1 -19 66 0
1 -18 89 0
1 -17 -8 0
1 -17 16 0
1 -17 25 0
1 -17 35 0
1 -17 89 0
1 -16 27 0
1 -16 114 0
1 -15 116 0
1 -14 -4 0
1 -14 3 0
1 -14 13 0
1 -14 104 0
1 -13 39 0
1 -13 41 0
1 -13 105 0
1 -12 2 0
1 -12 51 0
1 -12 74 0
1 -12 91 0
1 -11 20 0
1 -11 98 0
1 -11 122 0
1 -10 48 0
1 -10 61 0
1 -9 3 0
1 -9 67 0
1 -9 99 0
1 -8 35 0
1 -8 82 0
1 -8 118 0
1 -7 41 0
1 -7 44 0
1 -6 -2 0
1 -6 19 0
1 -6 24 0
1 -5 41 0
1 -3 18 0
1 -3 70 0
1 -2 65 0
1 -1 11 0
1 -1 83 0
1 1 27 0
1 1 92 0
1 1 101 0
1 2 30 0
1 2 100 0
1 3 56 0
1 3 65 0
1 4 93 0
1 4 116 0
1 5 12 0
1 5 85 0
1 6 89 0
1 6 107 0
1 7 31 0
1 7 56 0
1 7 107 0
1 9 68 0
1 9 104 0
1 10 32 0
1 10 59 0
1 10 69 0
1 11 23 0
1 12 37 0
1 12 52 0
1 12 121 0
1 13 79 0
1 13 121 0
1 14 66 0
1 14 102 0
1 14 112 0
1 15 50 0
1 16 40 0
1 16 54 0
1 16 60 0
1 17 60 0
1 17 81 0
1 17 116 0
1 18 39 0
1 19 74 0
1 19 92 0
1 20 38 0
1 20 67 0
1 20 77 0
1 21 30 0
1 21 67 0
1 21 70 0
1 21 113 0
1 22 27 0
1 22 68 0
1 22 124 0
1 23 51 0
1 23 119 0
1 23 124 0
1 24 80 0
1 24 81 0
1 25 55 0
1 25 92 0
1 25 97 0
1 26 45 0
1 26 58 0
1 27 52 0
1 28 30 0
1 28 31 0
1 29 84 0
1 29 120 0
1 30 77 0
1 30 103 0
1 32 49 0
1 32 95 0
1 33 50 0
1 34 61 0
1 34 110 0
1 34 115 0
1 35 46 0
1 36 49 0
1 36 95 0
1 36 100 0
1 37 82 0
1 38 76 0
1 39 45 0
1 40 75 0
1 40 118 0
1 41 62 0
1 41 84 0
1 42 46 0
1 42 79 0
1 42 107 0
1 43 78 0
1 43 96 0
1 43 103 0
1 44 87 0
1 46 119 0
1 47 58 0
1 47 63 0
1 47 73 0
1 48 66 0
1 48 84 0
1 49 54 0
1 49 92 0
1 50 123 0
1 51 54 0
1 52 101 0
1 53 60 0
1 53 74 0
1 54 91 0
1 55 76 0
1 55 77 0
1 55 80 0
1 56 96 0
1 57 83 0
1 57 117 0
1 59 72 0
1 59 81 0
1 59 106 0
1 60 91 0
1 60 115 0
1 62 74 0
1 62 83 0
1 62 99 0
1 63 73 0
1 63 77 0
1 63 87 0
1 64 70 0
1 65 90 0
1 65 106 0
1 67 71 0
1 69 90 0
1 69 101 0
1 71 105 0
1 72 94 0
1 72 111 0
1 73 101 0
1 74 90 0
1 77 108 0
1 78 109 0
1 79 86 0
1 79 98 0
1 80 97 0
1 81 85 0
1 82 123 0
1 85 88 0
1 86 99 0
1 86 107 0
1 87 96 0
1 88 98 0
1 88 111 0
1 92 117 0
1 94 100 0
1 95 112 0
1 98 120 0
1 99 118 0
1 100 121 0
1 103 110 0
1 106 118 0
1 106 123 0
1 108 113 0
1 109 111 0
1 109 119 0
1 112 117 0
1 113 122 0
